Problem:    
Rows:       260
Columns:    89 (72 integer, 72 binary)
Non-zeros:  974
Status:     INTEGER OPTIMAL
Objective:  value = 41.315593 (MINimum)

   No.   Row name        Activity     Lower bound   Upper bound
------ ------------    ------------- ------------- -------------
     1 r.5                   41.3156             0               
     2 r.6                   26.4956      -983.875               
     3 r.7                   1041.32             0               
     4 r.8                  -978.856      -984.768               
     5 r.9                   1041.32             0               
     6 r.10                  -977.08      -984.048               
     7 r.11                  41.3156             0               
     8 r.12                   24.658      -985.664               
     9 r.13                  1041.32             0               
    10 r.14                 -994.869      -999.171               
    11 r.15                  41.3156             0               
    12 r.16                  26.3292      -997.774               
    13 r.17                  1041.32             0               
    14 r.18                 -975.342      -998.262               
    15 r.19                  41.3156             0               
    16 r.20                   24.658       -997.05               
    17 r.21                  41.3156             0               
    18 r.22                 -987.928       -992.23               
    19 r.23                  1041.32             0               
    20 r.24                  -970.18      -992.996               
    21 r.25                  1041.32             0               
    22 r.26                 -999.373      -999.373               
    23 r.27                  41.3156             0               
    24 r.28                 -998.226      -998.226               
    25 r.29                  1041.32             0               
    26 r.30                 -958.684      -983.342               
    27 r.31                  41.3156             0               
    28 r.32                  41.3156      -990.205               
    29 r.33                  41.3156             0               
    30 r.34                  41.3156      -976.653               
    31 r.35                  1041.32             0               
    32 r.36                 -958.684      -988.504               
    33 r.37                        1             1             = 
    34 r.38                        1             1             = 
    35 r.39                        1             1             = 
    36 r.40                        1             1             = 
    37 r.41                        1             1             = 
    38 r.42                        1             1             = 
    39 r.43                        1             1             = 
    40 r.44                        1             1             = 
    41 r.45                     1001             2               
    42 r.46                    -1001         -1001               
    43 r.47                  1998.26      -984.048               
    44 r.48                     1001             2               
    45 r.49                    -1001         -1001               
    46 r.50                  2001.84      -985.664               
    47 r.51                     1001             2               
    48 r.52                    -1001         -1001               
    49 r.53                  1980.47      -999.171               
    50 r.54                     1001             2               
    51 r.55                    -1001         -1001               
    52 r.56                  2003.51      -997.774               
    53 r.57                     1001             2               
    54 r.58                    -1001         -1001               
    55 r.59                     2000      -998.262               
    56 r.60                     1001             2               
    57 r.61                    -1001         -1001               
    58 r.62                  2001.84       -997.05               
    59 r.63                     1000             2               
    60 r.64                    -1000         -1001               
    61 r.65                  987.414       -992.23               
    62 r.66                        2             2               
    63 r.67                       -2         -1001               
    64 r.68                 -992.996      -992.996               
    65 r.69                  22.1934      -983.875               
    66 r.70                 -983.158      -984.768               
    67 r.71                  1028.06      -983.875               
    68 r.72                  22.7123      -984.768               
    69 r.73                 -983.342      -983.342               
    70 r.74                  16.6576      -990.205               
    71 r.75                   -981.5      -983.342               
    72 r.76                     18.5      -990.205               
    73 r.77                  16.6576      -976.653               
    74 r.78                 -983.342      -988.504               
    75 r.79                     18.5      -976.653               
    76 r.80                   -981.5      -988.504               
    77 r.81                     1001             2               
    78 r.82                    -1001         -1001               
    79 r.83                  2003.58       16.1248               
    80 r.84                     1001             2               
    81 r.85                    -1001         -1001               
    82 r.86                  1996.49       15.2323               
    83 r.87                        2             2               
    84 r.88                       -2         -1001               
    85 r.89                 -17.7893      -999.171               
    86 r.90                     1000             2               
    87 r.91                    -1000         -1001               
    88 r.92                  2001.67      -997.774               
    89 r.93                        2             2               
    90 r.94                       -2         -1001               
    91 r.95                 -998.262      -998.262               
    92 r.96                     1000             2               
    93 r.97                    -1000         -1001               
    94 r.98                     2000       -997.05               
    95 r.99                     1001             2               
    96 r.100                   -1001         -1001               
    97 r.101                 989.152       -992.23               
    98 r.102                    1001             2               
    99 r.103                   -1001         -1001               
   100 r.104                 2005.16      -992.996               
   101 r.105                -981.382      -984.048               
   102 r.106                 20.3559      -985.664               
   103 r.107                 24.4878      -984.048               
   104 r.108                 1026.23      -985.664               
   105 r.109                -981.604      -983.342               
   106 r.110                 18.3956      -990.205               
   107 r.111                -983.342      -983.342               
   108 r.112                 16.6576      -990.205               
   109 r.113                    1001             2               
   110 r.114                   -1001         -1001               
   111 r.115                  2018.4      -976.653               
   112 r.116                    1001             2               
   113 r.117                   -1001         -1001               
   114 r.118                 2016.66      -988.504               
   115 r.119                    1001             2               
   116 r.120                   -1001         -1001               
   117 r.121                 2019.53       16.1248               
   118 r.122                    1001             2               
   119 r.123                   -1001         -1001               
   120 r.124                 1996.49       15.2323               
   121 r.125                       2             2               
   122 r.126                      -2         -1001               
   123 r.127                 15.9518       15.9518               
   124 r.128                    1000             2               
   125 r.129                   -1000         -1001               
   126 r.130                    2000       14.3362               
   127 r.131                       2             2               
   128 r.132                      -2         -1001               
   129 r.133                 -982.31      -998.262               
   130 r.134                    1000             2               
   131 r.135                   -1000         -1001               
   132 r.136                    2000       -997.05               
   133 r.137                    1001             2               
   134 r.138                   -1001         -1001               
   135 r.139                  1005.1       -992.23               
   136 r.140                    1001             2               
   137 r.141                   -1001         -1001               
   138 r.142                 2005.16      -992.996               
   139 r.143                -999.171      -999.171               
   140 r.144                  22.027      -997.774               
   141 r.145                 6.69851      -999.171               
   142 r.146                  1027.9      -997.774               
   143 r.147                -965.653      -983.342               
   144 r.148                 34.3474      -990.205               
   145 r.149                -983.342      -983.342               
   146 r.150                 16.6576      -990.205               
   147 r.151                 34.3474      -976.653               
   148 r.152                -965.653      -988.504               
   149 r.153                 16.6576      -976.653               
   150 r.154                -983.342      -988.504               
   151 r.155                    1001             2               
   152 r.156                   -1001         -1001               
   153 r.157                 2001.84       16.1248               
   154 r.158                    1001             2               
   155 r.159                   -1001         -1001               
   156 r.160                 1996.49       15.2323               
   157 r.161                       2             2               
   158 r.162                      -2         -1001               
   159 r.163                 998.262       15.9518               
   160 r.164                    1000             2               
   161 r.165                   -1000         -1001               
   162 r.166                    2000       14.3362               
   163 r.167                       2             2               
   164 r.168                      -2         -1001               
   165 r.169                 980.473      0.828533               
   166 r.170                    1000             2               
   167 r.171                   -1000         -1001               
   168 r.172                 2001.67       2.22644               
   169 r.173                    1001             2               
   170 r.174                   -1001         -1001               
   171 r.175                 987.414       -992.23               
   172 r.176                    1001             2               
   173 r.177                   -1001         -1001               
   174 r.178                 2005.16      -992.996               
   175 r.179                -979.644      -998.262               
   176 r.180                 20.3559       -997.05               
   177 r.181                 26.2259      -998.262               
   178 r.182                 1026.23       -997.05               
   179 r.183                -983.342      -983.342               
   180 r.184                 16.6576      -990.205               
   181 r.185                -983.342      -983.342               
   182 r.186                 16.6576      -990.205               
   183 r.187                    1001             2               
   184 r.188                   -1001         -1001               
   185 r.189                 2016.66      -976.653               
   186 r.190                    1001             2               
   187 r.191                   -1001         -1001               
   188 r.192                 2016.66      -988.504               
   189 r.193                    1000             2               
   190 r.194                   -1000         -1001               
   191 r.195                 3014.42       16.1248               
   192 r.196                       2             2               
   193 r.197                      -2         -1001               
   194 r.198                 991.325       15.2323               
   195 r.199                    1001             2               
   196 r.200                   -1001         -1001               
   197 r.201                 3010.85       15.9518               
   198 r.202                    1001             2               
   199 r.203                   -1001         -1001               
   200 r.204                 1994.84       14.3362               
   201 r.205                    1001             2               
   202 r.206                   -1001         -1001               
   203 r.207                 2993.06      0.828533               
   204 r.208                    1001             2               
   205 r.209                   -1001         -1001               
   206 r.210                 1996.51       2.22644               
   207 r.211                    1001             2               
   208 r.212                   -1001         -1001               
   209 r.213                 3012.59       1.73801               
   210 r.214                    1001             2               
   211 r.215                   -1001         -1001               
   212 r.216                 1994.84       2.95016               
   213 r.217                 -992.23       -992.23               
   214 r.218                -974.482      -992.996               
   215 r.219                 13.6397       -992.23               
   216 r.220                 31.3876      -992.996               
   217 r.221                    1001             2               
   218 r.222                   -1001         -1001               
   219 r.223                 3029.24      -983.342               
   220 r.224                    1001             2               
   221 r.225                   -1001         -1001               
   222 r.226                  2011.5      -990.205               
   223 r.227                 1029.24      -976.653               
   224 r.228                 29.2437      -988.504               
   225 r.229                 11.4958      -976.653               
   226 r.230                -988.504      -988.504               
   227 r.231                -962.987      -983.342               
   228 r.232                 37.0134      -990.205               
   229 r.233                 42.8834      -983.342               
   230 r.234                 1042.88      -990.205               
   231 r.235                    1001             2               
   232 r.236                   -1001         -1001               
   233 r.237                 970.756        7.7697               
   234 r.238                    1001             2               
   235 r.239                   -1001         -1001               
   236 r.240                  1988.5        7.0042               
   237 r.241                    1001             2               
   238 r.242                   -1001         -1001               
   239 r.243                    2000      -976.653               
   240 r.244                    1001             2               
   241 r.245                   -1001         -1001               
   242 r.246                    2000      -988.504               
   243 r.247                    1001             2               
   244 r.248                   -1001         -1001               
   245 r.249                  1981.6       15.9518               
   246 r.250                    1001             2               
   247 r.251                   -1001         -1001               
   248 r.252                 1983.34       14.3362               
   249 r.253                    1001             2               
   250 r.254                   -1001         -1001               
   251 r.255                 1983.34       1.73801               
   252 r.256                    1001             2               
   253 r.257                   -1001         -1001               
   254 r.258                 1983.34       2.95016               
   255 r.259                    1001             2               
   256 r.260                   -1001         -1001               
   257 r.261                    2000       16.6576               
   258 r.262                    1001             2               
   259 r.263                   -1001         -1001               
   260 r.264                    2000       9.79495               

   No. Column name       Activity     Lower bound   Upper bound
------ ------------    ------------- ------------- -------------
     1 tt                    41.3156             0               
     2 s_1_1        *              0             0             1 
     3 t_1_1                 16.6576             0               
     4 s_1_8        *              0             0             1 
     5 s_1_7        *              1             0             1 
     6 s_2_1        *              1             0             1 
     7 t_2_1                    18.5             0               
     8 s_2_8        *              1             0             1 
     9 s_2_7        *              0             0             1 
    10 s_1_2        *              1             0             1 
    11 t_1_2                 18.3956             0               
    12 s_2_2        *              0             0             1 
    13 t_2_2                 16.6576             0               
    14 s_1_3        *              1             0             1 
    15 t_1_3                 34.3474             0               
    16 s_2_3        *              0             0             1 
    17 t_2_3                 16.6576             0               
    18 s_1_4        *              1             0             1 
    19 t_1_4                 16.6576             0               
    20 s_2_4        *              0             0             1 
    21 t_2_4                 16.6576             0               
    22 s_1_5        *              0             0             1 
    23 t_1_5                 1029.24             0               
    24 s_2_5        *              1             0             1 
    25 t_2_5                 11.4958             0               
    26 s_1_6        *              1             0             1 
    27 t_1_6                 37.0134             0               
    28 s_2_6        *              0             0             1 
    29 t_2_6                 1042.88             0               
    30 t_1_7                       0             0               
    31 t_2_7                       0             0               
    32 t_1_8                       0             0               
    33 t_2_8                       0             0               
    34 r_1_1_2      *              1             0             1 
    35 u_1_1_2      *              0             0             1 
    36 r_2_1_2      *              1             0             1 
    37 u_2_1_2      *              0             0             1 
    38 r_1_1_3      *              1             0             1 
    39 u_1_1_3      *              0             0             1 
    40 r_2_1_3      *              1             0             1 
    41 u_2_1_3      *              0             0             1 
    42 r_1_1_4      *              1             0             1 
    43 u_1_1_4      *              0             0             1 
    44 r_2_1_4      *              1             0             1 
    45 u_2_1_4      *              0             0             1 
    46 r_1_1_5      *              1             0             1 
    47 u_1_1_5      *              0             0             1 
    48 r_2_1_5      *              0             0             1 
    49 u_2_1_5      *              1             0             1 
    50 r_1_2_3      *              0             0             1 
    51 u_1_2_3      *              0             0             1 
    52 r_2_2_3      *              1             0             1 
    53 u_2_2_3      *              0             0             1 
    54 r_1_2_4      *              0             0             1 
    55 u_1_2_4      *              1             0             1 
    56 r_2_2_4      *              1             0             1 
    57 u_2_2_4      *              0             0             1 
    58 r_1_2_5      *              1             0             1 
    59 u_1_2_5      *              0             0             1 
    60 r_2_2_5      *              1             0             1 
    61 u_2_2_5      *              0             0             1 
    62 r_1_2_8      *              1             0             1 
    63 u_1_2_8      *              0             0             1 
    64 r_2_2_8      *              1             0             1 
    65 u_2_2_8      *              0             0             1 
    66 r_1_3_4      *              0             0             1 
    67 u_1_3_4      *              1             0             1 
    68 r_2_3_4      *              1             0             1 
    69 u_2_3_4      *              0             0             1 
    70 r_1_3_5      *              1             0             1 
    71 u_1_3_5      *              0             0             1 
    72 r_2_3_5      *              1             0             1 
    73 u_2_3_5      *              0             0             1 
    74 r_1_4_5      *              1             0             1 
    75 u_1_4_5      *              0             0             1 
    76 r_2_4_5      *              1             0             1 
    77 u_2_4_5      *              0             0             1 
    78 r_1_4_8      *              1             0             1 
    79 u_1_4_8      *              0             0             1 
    80 r_2_4_8      *              1             0             1 
    81 u_2_4_8      *              0             0             1 
    82 r_1_5_7      *              1             0             1 
    83 u_1_5_7      *              0             0             1 
    84 r_2_5_7      *              1             0             1 
    85 u_2_5_7      *              0             0             1 
    86 r_1_7_8      *              1             0             1 
    87 u_1_7_8      *              0             0             1 
    88 r_2_7_8      *              1             0             1 
    89 u_2_7_8      *              0             0             1 

Integer feasibility conditions:

KKT.PE: max.abs.err = 2.27e-13 on row 10
        max.rel.err = 1.09e-16 on row 10
        High quality

KKT.PB: max.abs.err = 1.14e-13 on row 213
        max.rel.err = 1.14e-16 on row 213
        High quality

End of output
